(set-logic ALL)
(declare-const BAV1 Bool)
(declare-const BAV2 Bool)
(define-sort Elt () Int)
(define-sort mySet () (Set Elt ))
(define-fun smt_set_emp () mySet (as emptyset mySet))
(declare-fun S () (Set Int))
(declare-fun T () (Set Int))
(assert (not (= S T)))
(assert (= T (union smt_set_emp S)))
(assert (= BAV1 (= S T)))
(assert (= BAV2 (= T (union smt_set_emp S))))
(check-sat)
(get-model)